; benchmark generated from python API
(set-info :status unknown)
(declare-fun S_3 () Real)
(declare-fun S_4 () Real)
(declare-fun B () Real)
(declare-fun C () Real)
(declare-fun A_0 () Real)
(declare-fun L_0 () Real)
(declare-fun S_2 () Real)
(declare-fun S_0 () Real)
(declare-fun S_1 () Real)
(declare-fun S_5 () Real)
(declare-fun L0 () Real)
(declare-fun A_5 () Real)
(declare-fun A_3 () Real)
(declare-fun A_1 () Real)
(declare-fun L_1 () Real)
(declare-fun A_2 () Real)
(declare-fun A_4 () Real)
(declare-fun L_2 () Real)
(assert
 (let (($x22213 (>= (+ (* (- 1.0) C) (* (- 1.0) B) S_4 (* (- 1.0) S_3)) 0.0)))
 (let (($x42 (>= L0 0.0)))
 (let (($x675 (>= C 5.0)))
 (let (($x901 (>= B 5.0)))
 (let ((?x589 (* (- 1.0) A_5)))
 (let ((?x385 (* (- 1.0) S_1)))
 (let ((?x645 (* (- 1.0) B)))
 (let ((?x2212 (* (- 3.0) C)))
 (let (($x24723 (<= (+ (* (- 4.0) C) ?x645 (* (- 1.0) S_0) A_3 S_5 ?x589) 0.0)))
 (let (($x24953 (<= (+ L_0 ?x645 (* (- 1.0) A_1) A_3 (* (- 2.0) C) S_5 ?x589) 0.0)))
 (let (($x24618 (<= (+ (* (- 1.0) C) ?x645 A_3 S_5 ?x589 (* (- 1.0) S_3)) 0.0)))
 (let (($x25026 (<= (+ (* (- 2.0) C) ?x645 A_3 S_5 ?x589 (* (- 1.0) S_2)) 0.0)))
 (let (($x22343 (<= S_5 (+ A_5 (* (- 1.0) A_3) A_2 (* (- 1.0) L_1) C B))))
 (let (($x24381 (<= (+ (* (- 5.0) C) ?x645 (* (- 1.0) S_0) S_5 A_4 ?x589) 0.0)))
 (let (($x23929 (not (<= 0.0 (+ (* (- 1.0) C) ?x645 (* (- 1.0) A_2) A_3)))))
 (let (($x22628 (<= (+ A_2 (* (- 1.0) A_1) (* (- 1.0) C)) 0.0)))
 (let (($x23322 (not $x22628)))
 (let (($x22363 (>= S_5 (+ A_4 (* (- 1.0) A_3) A_2 (* (- 1.0) L_0) C B))))
 (let (($x3208 (not (= L_0 L_2))))
 (let (($x24074 (or $x3208 $x22363 (>= S_5 (+ A_2 (* (- 1.0) L_0) (* 2.0 C))) $x23322 (not (<= 0.0 (+ L_0 (* 2.0 C) S_0 (* (- 1.0) A_2)))) $x23929)))
 (let ((?x612 (* (- 1.0) S_5)))
 (let ((?x597 (* (- 1.0) A_3)))
 (let ((?x1360 (* 3.0 C)))
 (let (($x23087 (<= (+ ?x1360 B S_0 ?x597 ?x612 A_4) 0.0)))
 (let (($x23020 (<= (+ (* 4.0 C) S_0 ?x612) 0.0)))
 (let ((?x857 (* 2.0 C)))
 (let ((?x466 (* (- 1.0) L_1)))
 (let ((?x22725 (+ A_2 ?x466 ?x857)))
 (let (($x22726 (>= S_5 ?x22725)))
 (let ((?x373 (* (- 1.0) C)))
 (let ((?x601 (* (- 1.0) A_2)))
 (let ((?x512 (+ A_3 ?x601 ?x373)))
 (let (($x22368 (<= ?x512 B)))
 (let (($x22371 (not $x22368)))
 (let (($x2762 (>= S_5 (+ A_4 ?x466))))
 (let (($x24218 (<= (+ L_0 (* (- 4.0) C) ?x645 S_5 A_4 ?x589 (* (- 1.0) A_0)) 0.0)))
 (let (($x23650 (not (<= 0.0 (+ C ?x645 ?x612 S_4)))))
 (let (($x24623 (<= (+ (* (- 2.0) C) ?x645 S_5 A_4 ?x589 (* (- 1.0) S_3)) 0.0)))
 (let (($x23148 (<= (+ (* (- 1.0) L_0) A_1 ?x1360 ?x612) 0.0)))
 (let (($x22279 (<= 0.0 (+ C ?x645 A_3 (* (- 1.0) A_4)))))
 (let (($x971 (>= S_5 (+ A_4 (* (- 1.0) L_2)))))
 (let (($x23809 (<= 0.0 (+ L_0 ?x857 S_0 ?x601))))
 (let (($x977 (not (<= L_1 L_0))))
 (let (($x22453 (not $x22279)))
 (let (($x1893 (not (= L_1 L_2))))
 (let (($x40239 (or $x1893 $x2762 $x22453 $x22628 $x23087 (not (<= 0.0 (+ B A_1 ?x597 ?x857))))))
 (let (($x23196 (<= 0.0 (+ B A_1 ?x597 ?x857))))
 (let (($x23096 (<= 0.0 (+ L_0 C (* (- 1.0) A_1) S_0))))
 (let (($x978 (<= L_2 L_1)))
 (let (($x979 (not $x978)))
 (let (($x24260 (<= (+ (* (- 4.0) C) ?x645 ?x385 A_3 S_5 (* (- 1.0) A_4)) 0.0)))
 (let (($x24277 (<= (+ ?x2212 ?x645 A_3 S_5 (* (- 1.0) A_4) (* (- 1.0) S_2)) 0.0)))
 (let (($x22993 (<= (+ ?x857 B S_1 ?x597 ?x612 A_4) 0.0)))
 (let (($x22333 (>= S_5 (+ A_4 ?x597 A_2 ?x466 C B))))
 (let ((?x593 (* (- 1.0) A_4)))
 (let ((?x1242 (* (- 1.0) S_0)))
 (let ((?x9680 (* (- 5.0) C)))
 (let (($x24250 (or $x971 (<= (+ B ?x597 ?x612 A_4 S_3) 0.0) (<= (+ C ?x612 S_3) 0.0))))
 (let (($x24141 (<= (+ (* (- 2.0) C) ?x645 A_3 S_5 ?x593 (* (- 1.0) S_3)) 0.0)))
 (let (($x24133 (<= (+ L_0 (* (- 4.0) C) ?x645 A_3 S_5 ?x593 (* (- 1.0) A_0)) 0.0)))
 (let (($x23149 (not $x23096)))
 (let (($x25815 (or (not (<= L_2 L_0)) $x22628 $x23148 $x23149 $x23196 (<= (+ (* (- 1.0) L_0) B A_1 ?x597 ?x857 ?x612 A_4) 0.0))))
 (let (($x23881 (or $x971 (<= (+ ?x857 ?x612 S_2) 0.0) (<= (+ C B ?x597 ?x612 A_4 S_2) 0.0))))
 (let ((?x1059 (+ A_2 ?x466)))
 (let (($x2929 (>= S_3 ?x1059)))
 (let (($x23544 (not (<= 0.0 (+ L_0 ?x645 (* (- 1.0) A_1) (* (- 2.0) C) S_4)))))
 (let (($x38822 (or (>= S_3 (+ A_2 (* (- 1.0) L_0))) $x23149 (<= (+ (* (- 1.0) L_0) A_1 C (* (- 1.0) S_3)) 0.0))))
 (let (($x39158 (or (<= (+ A_1 (* (- 1.0) L_0) (* (- 1.0) S_2)) 0.0) (<= (+ C S_0 (* (- 1.0) S_2)) 0.0))))
 (let (($x22449 (<= (+ A_1 ?x466 ?x857) S_4)))
 (let (($x22167 (<= (+ A_2 (* (- 1.0) L_2) C) S_4)))
 (let (($x69 (= L_2 L_1)))
 (let (($x21544 (<= A_2 (+ A_1 ?x645 C))))
 (let (($x22534 (= (+ ?x373 A_2 (* (- 1.0) L_2) ?x645 (* (- 1.0) A_1) L_0) 0.0)))
 (let ((?x572 (* (- 1.0) L_2)))
 (let ((?x22495 (+ ?x645 ?x572 A_2 ?x373)))
 (let (($x22508 (<= (+ A_1 (* (- 1.0) L_0)) ?x22495)))
 (let ((?x21749 (+ A_2 ?x572 ?x645 ?x857)))
 (let (($x22284 (>= S_5 ?x21749)))
 (let (($x462 (<= ?x512 0.0)))
 (let (($x1692 (not (= L_0 L_1))))
 (let (($x1342 (= L_2 L_0)))
 (let (($x21999 (or $x1342 $x1692 (<= (+ A_1 (* (- 1.0) L_0) L_2 ?x601 C) 0.0))))
 (let (($x41 (>= L_0 L0)))
 (let (($x131 (>= S_1 S_0)))
 (let (($x134 (>= S_2 S_1)))
 (let (($x137 (>= S_3 S_2)))
 (let (($x140 (>= S_4 S_3)))
 (let (($x143 (>= S_5 S_4)))
 (let (($x145 (>= A_1 A_0)))
 (let (($x146 (>= A_2 A_1)))
 (let (($x148 (>= A_4 A_3)))
 (let (($x149 (>= A_5 A_4)))
 (and (<= (+ A_2 ?x572) S_4) $x149 $x148 $x146 $x145 $x143 $x140 $x137 $x134 $x131 $x41 (or (= L_1 L_0) (<= S_1 (+ A_1 ?x466 ?x645))) (or $x69 (<= S_2 (+ A_2 ?x572 ?x645))) (or $x69 (<= S_3 (+ A_2 ?x572 ?x645 C))) (<= S_5 (+ A_5 ?x572)) (>= S_3 (+ A_2 ?x572 ?x645)) (<= (+ ?x645 ?x466 A_1 ?x373) (+ A_0 (* (- 1.0) L_0))) (or $x1692 (>= S_2 (+ A_1 (* (- 1.0) L_0) ?x645))) (>= S_2 (+ A_1 ?x466 ?x645)) (or (= L_1 L_0) $x977) (or $x1692 (>= S_1 (+ ?x645 (* (- 1.0) L_0) A_1 ?x373))) (>= S_1 (+ ?x645 ?x466 A_1 ?x373)) (>= S_0 (+ ?x645 ?x466 A_1 (* (- 2.0) C))) (or $x1893 (>= S_4 (+ A_2 ?x466 ?x645 C))) (or $x69 $x979) (>= S_4 (+ A_2 ?x572 ?x645 C)) (or $x69 (<= S_4 ?x21749)) (or (= L_1 L_0) $x69 (= (+ A_2 ?x572) (+ A_1 ?x466 C))) $x21999 (or $x69 (<= S_5 (+ A_2 ?x572 ?x645 ?x1360))) (or (= L_1 L_0) (<= S_0 (+ ?x645 ?x466 A_1 ?x373))) (or (not $x462) $x971 $x22284) (not (<= (+ A_3 ?x572) S_4)) (or $x21544 (>= S_4 (+ A_1 ?x466 ?x645 ?x857))) (or (= L_1 L_0) (<= S_3 (+ A_1 ?x466 ?x645 ?x857))) (or (<= (+ A_2 ?x466 C) S_4) (not $x21544)) (or $x21544 (>= S_3 (+ A_1 ?x466 ?x645 C))) (or $x2929 (not $x21544)) (or $x69 (not $x22167)) (or $x69 (<= S_5 (+ A_5 ?x597 A_2 ?x572 C))) (or $x978 (<= S_5 (+ A_5 ?x593 A_2 ?x572 ?x857))) (or $x69 (<= S_1 ?x22495)) (or $x462 $x22284 (>= S_5 (+ A_4 ?x597 A_2 ?x572 C))) (<= (+ ?x645 ?x572 A_2 (* (- 2.0) C)) (+ A_0 (* (- 1.0) L_0))) (>= S_2 ?x22495) (or $x69 (<= S_0 (+ ?x645 ?x572 A_2 (* (- 2.0) C))) $x22508) (<= (+ (* (- 1.0) A_1) L_0 S_1) 0.0) (or (not $x22508) $x22534) (or (= L_1 L_0) (<= S_2 (+ A_1 ?x466 ?x645 C))) (or (= L_1 L_0) (not $x22449)) (or (not $x21544) $x22333 $x22368 $x22453) (or (= L_1 L_0) $x1893 $x22628) (or $x971 $x21544 (>= S_5 (+ A_4 ?x597 A_1 ?x466 ?x857)) $x22453) (or (= L_1 L_0) (<= S_5 (+ A_4 ?x597 A_1 ?x466 ?x1360))) (or (= L_1 L_0) (<= S_5 (+ A_1 ?x466 ?x645 (* 4.0 C)))) (or (= L_1 L_0) (<= S_4 (+ A_1 ?x466 ?x645 ?x1360))) (or $x971 $x21544 $x22279 (>= S_5 (+ A_1 ?x466 ?x645 ?x1360))) (or (not $x21544) $x22279 $x22368 $x22726) (or $x2762 (not $x21544) $x22371 $x22726) (or (= L_1 L_0) (<= S_5 (+ A_5 ?x593 A_1 ?x466 ?x1360))) (or (= L_1 L_0) (<= S_5 (+ A_5 ?x597 A_1 ?x466 ?x857))) (>= S_1 (+ ?x645 ?x572 A_2 (* (- 2.0) C))) (>= S_0 (+ ?x645 ?x572 A_2 ?x2212)) (or $x69 (<= S_5 (+ A_4 ?x597 A_2 ?x572 ?x857))) (<= (+ L_0 ?x373 S_1 (* (- 1.0) A_0)) 0.0) (or $x22167 (<= (+ ?x857 S_1 (* (- 1.0) S_4)) 0.0)) (<= (+ (* (- 4.0) C) ?x385 S_4) 0.0) (<= S_4 ?x22725) (or $x22167 $x22449 (<= (+ ?x1360 S_0 (* (- 1.0) S_4)) 0.0)) (<= (+ ?x9680 ?x1242 S_4) 0.0) (or $x2929 (<= (+ C S_1 (* (- 1.0) S_3)) 0.0)) $x39158 (<= (+ (* (- 4.0) C) ?x1242 S_3) 0.0) (<= (+ ?x2212 ?x385 S_3) 0.0) (<= S_3 (+ A_2 ?x466 C)) $x38822 $x23544 (<= (+ L_0 (* (- 1.0) A_1) (* (- 2.0) C) S_3) 0.0) (<= (+ L_0 (* (- 1.0) A_1) ?x373 S_2) 0.0) (or (<= (+ ?x373 ?x597 A_4) 0.0) $x23650) (or $x2929 (<= (+ ?x857 S_0 (* (- 1.0) S_3)) 0.0) $x23096) (not (<= 0.0 (+ (* (- 2.0) C) ?x645 S_4 (* (- 1.0) S_2)))) (<= S_2 ?x1059) (<= (+ (* (- 2.0) C) ?x385 S_2) 0.0) (<= (+ L_0 (* (- 2.0) C) S_2 (* (- 1.0) A_0)) 0.0) (not (<= 0.0 (+ ?x2212 ?x645 ?x385 S_4))) (not (<= 0.0 (+ (* (- 4.0) C) ?x645 ?x1242 S_4))) (not (<= 0.0 (+ L_0 ?x2212 ?x645 S_4 (* (- 1.0) A_0)))) (not (<= (+ A_2 ?x466 C B) S_4)) $x23881 (<= S_5 (+ A_4 ?x572 C)) $x25815 (<= (+ ?x373 ?x645 A_3 S_5 (* (- 1.0) S_4) ?x593) 0.0) $x24133 (<= S_5 (+ A_4 ?x597 A_2 ?x466 ?x857 B)) (<= (+ L_0 ?x645 (* (- 1.0) A_1) A_3 ?x2212 S_5 ?x593) 0.0) $x24141 (<= (+ L_0 (* (- 1.0) A_1) ?x2212 S_4) 0.0) $x24250 (<= (+ ?x9680 ?x645 ?x1242 A_3 S_5 ?x593) 0.0) (or $x22333 $x22453 $x22993 $x23929) (or $x971 $x22371 $x22453 $x22993) (<= (+ ?x373 ?x645 S_5 (* (- 1.0) S_4) A_4 ?x589) 0.0) (<= (+ ?x2212 ?x645 S_5 A_4 ?x589 (* (- 1.0) S_2)) 0.0) (<= (+ L_0 ?x9680 S_5 (* (- 1.0) A_0)) 0.0) (<= (+ L_0 (* (- 1.0) A_1) (* (- 4.0) C) S_5) 0.0) (<= (+ ?x2212 S_4 (* (- 1.0) S_2)) 0.0) (<= (+ L_0 (* (- 4.0) C) S_4 (* (- 1.0) A_0)) 0.0) $x24277 $x24260 (or $x979 $x22453 $x22628 $x23087 $x23096 $x23196) $x40239 (or $x977 $x23020 $x23087 $x23322 $x23809 $x23929) (<= S_5 (+ A_2 ?x466 ?x1360)) (<= (+ (* (- 4.0) C) S_5 (* (- 1.0) S_2)) 0.0) (or $x971 $x22279 $x22726 (<= (+ ?x1360 S_1 ?x612) 0.0)) (or $x971 $x22279 $x22726 $x23020 $x23148) (<= (+ ?x9680 ?x385 S_5) 0.0) $x24623 (<= (+ (* (- 6.0) C) ?x1242 S_5) 0.0) (or (not (<= 0.0 (+ ?x597 ?x612 S_4 A_4))) $x23650) (<= (+ (* (- 4.0) C) ?x645 ?x385 S_5 A_4 ?x589) 0.0) (<= (+ L_0 ?x645 (* (- 1.0) A_1) ?x2212 S_5 A_4 ?x589) 0.0) (<= S_5 (+ A_5 ?x593 A_2 ?x466 ?x857 B)) $x24218 (or $x2762 $x22371 $x22726 $x23020 $x23087 $x23322) $x24074 $x24381 (<= (+ ?x645 A_3 S_5 (* (- 1.0) S_4) ?x589) 0.0) $x22343 $x25026 $x24618 $x24953 (<= (+ L_0 ?x2212 ?x645 A_3 S_5 ?x589 (* (- 1.0) A_0)) 0.0) $x24723 (<= (+ ?x2212 ?x645 ?x385 A_3 S_5 ?x589) 0.0) $x901 $x675 $x42 (<= (+ (* (- 2.0) C) S_5 (* (- 1.0) S_4)) 0.0) (<= (+ ?x2212 S_5 (* (- 1.0) S_3)) 0.0) (<= (+ L_0 S_0 (* (- 1.0) A_0)) 0.0) (<= (+ C (* (- 1.0) S_4) S_2) 0.0) (<= (+ (* (- 2.0) C) S_4 (* (- 1.0) S_3)) 0.0) (<= (+ ?x2212 ?x1242 S_2) 0.0) (<= (+ (* (- 2.0) C) S_1 ?x1242) 0.0) (<= (+ (* (- 2.0) C) (* (- 1.0) S_2) S_3) 0.0) (<= (+ L_0 ?x2212 S_3 (* (- 1.0) A_0)) 0.0) (not $x22213)))))))))))))))))))))))))))))))))))))))))))))))))))))))))))))))))))))))))))))))))))))))))))))))
(check-sat)
